objective value:                                   -7
t_n_11                                              1 	(obj:-1)
t_n_536                                             1 	(obj:-1)
t_n_1177                                            1 	(obj:-1)
t_n_1301                                            1 	(obj:-1)
t_n_1401                                            1 	(obj:-1)
t_n_1499                                            1 	(obj:-1)
t_n_1546                                            1 	(obj:-1)
